(declare-const a Real)
(declare-const b Real)
(declare-const c Real)
(assert (= (+ a b c) 1))
(assert (> a 0))
(assert (> b 0))
(assert (> c 0))
(assert (not (<= (+ 10 (* 4 a) (* 4 c) (* 4 (pow b 2)) (* -2 (pow 6 (/ 1 2)) (pow (+ (* 8 a) (* 8 b) (* 8 c) (* 8 a b) (* 8 a c) (* 8 b c)) (pow 2 -1))) (* 4 a (pow 2 (/ 1 2))) (* 4 c (pow 2 (/ 1 2)))) 0)))
(check-sat)
(get-model)
(exit)